db/data/257121256204121739424370282471152830373.z3.out
sat
-------------------
195.074505800
